14

C 0.5905479580 1.4377148978 -0.5120243921
H -0.3443969756 1.9973578583 -0.5558293890
H 0.7036459499 0.9055089358 -1.4547233255
H 1.4057859001 2.1559418468 -0.4409253972
C 0.5905479580 0.4835459658 0.6764885235
H 1.5207678920 -0.0897619934 0.6861615226
H 0.5755099593 1.0633389246 1.6008524577
C -0.5905479580 -0.4835459658 0.6764885235
H -1.5207678920 0.0897619934 0.6861615226
H -0.5755099593 -1.0633389246 1.6008524577
C -0.5905479580 -1.4377148978 -0.5120243921
H 0.3443969756 -1.9973578583 -0.5558293890
H -1.4057859001 -2.1559418468 -0.4409253972
H -0.7036459499 -0.9055089358 -1.4547233255
