14

C 0.7030149500 1.8156448712 0.0000000000
H 0.1887149865 2.2020828436 0.8796639377
H 0.1887149865 2.2020828436 -0.8796639377
H 1.7143358786 2.2189268426 0.0000000000
C 0.7030149500 0.2926679791 0.0000000000
H 1.2434179120 -0.0769439947 -0.8744259380
H 1.2434179120 -0.0769439947 0.8744259380
C -0.7030149500 -0.2926679791 0.0000000000
H -1.2434179120 0.0769439947 -0.8744259380
H -1.2434179120 0.0769439947 0.8744259380
C -0.7030149500 -1.8156448712 0.0000000000
H -0.1887149865 -2.2020828436 0.8796639377
H -1.7143358786 -2.2189268426 0.0000000000
H -0.1887149865 -2.2020828436 -0.8796639377
