20

C -0.4884739651 -0.0789649945 2.7098058075
C 0.7151509494 0.1984209860 1.8163428713
C 0.5579949604 -0.3374839760 0.3947789721
C -0.5579949604 0.3374839760 -0.3947789721
C -0.7151509494 -0.1984209860 -1.8163428713
C 0.4884739651 0.0789649945 -2.7098058075
H -0.7080119498 -1.1468159184 2.7374878056
H -1.3805219021 0.4347469691 2.3565588326
H -0.3037729783 0.2496779824 3.7314077354
H 1.6029998864 -0.2487319823 2.2667258389
H 0.9004179362 1.2744569098 1.7732908740
H 0.3657749740 -1.4143878995 0.4355709689
H 1.5041358931 -0.2112699850 -0.1336999906
H -0.3657749740 1.4143878995 -0.4355709689
H -1.5041358931 0.2112699850 0.1336999906
H -1.6029998864 0.2487319823 -2.2667258389
H -0.9004179362 -1.2744569098 -1.7732908740
H 0.3037729783 -0.2496779824 -3.7314077354
H 1.3805219021 -0.4347469691 -2.3565588326
H 0.7080119498 1.1468159184 -2.7374878056
