20

C -1.9765821099 1.0620839249 -0.0471496965
C -1.9242551136 -0.4587729674 -0.1279266911
C -0.5220892132 -1.0274259272 -0.3407096758
C 0.4647457169 -0.6790319518 0.7833792445
C 1.3689156529 0.5177239631 0.4826952657
C 2.4370845773 0.1943329864 -0.5556546605
H -1.5540051398 1.5145978923 -0.9447476330
H -1.4180171495 1.4362378982 0.8094532424
H -3.0030990368 1.4122888998 0.0516982961
H -2.5699660677 -0.7965549437 -0.9407646331
H -2.3376350843 -0.8828399375 0.7903902441
H -0.1327562403 -0.6710019522 -1.2977966078
H -0.6055902067 -2.1111798503 -0.4341196693
H 1.1068386717 -1.5380538909 0.9910132296
H -0.0993222431 -0.4948269649 1.7013591790
H 1.8565326181 0.8397219405 1.4047122005
H 0.7675336953 1.3599409035 0.1391272901
H 3.0636285324 1.0600759249 -0.7648586456
H 1.9949286087 -0.1276459909 -1.4976015939
H 3.0831095315 -0.6096699568 -0.2024986855
