20

C -1.8263409704 1.2351492623 0.0224876487
C -2.0339069557 -0.2557986319 -0.2140803350
C -0.8989900362 -1.1412135691 0.2982996286
C 0.4675218670 -0.8416615903 -0.3317343263
C 1.3492708042 0.0892433435 0.4954206146
C 2.6681567108 0.4005353214 -0.1992873358
H -0.9605730320 1.6088712360 -0.5221953129
H -1.6713139815 1.4447902472 1.0811315733
H -2.6929489088 1.8060602218 -0.3080143283
H -2.1595119468 -0.4354686193 -1.2845342589
H -2.9660338894 -0.5674536095 0.2609786316
H -1.1696460172 -2.1806274950 0.1064046422
H -0.8230470415 -1.0415035759 1.3849235517
H 0.3220738772 -0.4133556208 -1.3284592557
H 1.0161948279 -1.7738535239 -0.4831863157
H 1.5433407905 -0.3825096229 1.4614005465
H 0.8173978418 1.0162742779 0.7097425996
H 3.3020026657 1.0446862760 0.4081406211
H 2.4945057231 0.9031322860 -1.1508512681
H 3.2218476713 -0.5152966134 -0.4065873212
