20

C -0.7605919463 2.1917568446 -0.4882837653
C -1.3207999062 0.7872369444 -0.2974957790
C -0.7605919463 0.0782829946 0.9339611336
C 0.7605919463 -0.0782829946 0.9339611336
C 1.3207999062 -0.7872369444 -0.2974957790
C 0.7605919463 -2.1917568446 -0.4882837653
H 0.3102909778 2.1729248459 -0.6851677514
H -0.9224149343 2.7961548016 0.4049551713
H -1.2402819120 2.6974518084 -1.3249037059
H -1.1238659202 0.1905869863 -1.1903907155
H -2.4067348294 0.8425369403 -0.2039807856
H -1.2281829128 -0.9038189359 1.0256411272
H -1.0535439253 0.6383719547 1.8256650705
H 1.0535439253 -0.6383719547 1.8256650705
H 1.2281829128 0.9038189359 1.0256411272
H 2.4067348294 -0.8425369403 -0.2039807856
H 1.1238659202 -0.1905869863 -1.1903907155
H 1.2402819120 -2.6974518084 -1.3249037059
H -0.3102909778 -2.1729248459 -0.6851677514
H 0.9224149343 -2.7961548016 0.4049551713
