20

C 2.5453096191 0.8540701894 -0.2157316345
C 2.0606446536 -0.4722867162 0.3583753247
C 0.6950287506 -0.9000776863 -0.1729466378
C -0.4402371687 0.0444542471 0.2025993357
C -1.8033970719 -0.4588477175 -0.2547456318
C -2.9321099918 0.4942902148 0.1155533416
H 1.8988116652 1.6790111307 0.0779023444
H 2.5638936179 0.8172701922 -1.3055075572
H 3.5521605481 1.0874191727 0.1270583410
H 2.0147536571 -0.4052627214 1.4479892471
H 2.7909306019 -1.2498966613 0.1279703409
H 0.4590617672 -1.8977306152 0.2057543352
H 0.7441317470 -0.9872776799 -1.2624535606
H -0.2661211813 1.0321591768 -0.2300196335
H -0.4516591677 0.1799272374 1.2886492586
H -1.9892980590 -1.4406556477 0.1864743366
H -1.7849410731 -0.6061997070 -1.3370465549
H -3.8999919231 0.1210282416 -0.2154336347
H -2.7773340028 1.4724341453 -0.3395946260
H -2.9796369884 0.6361712046 1.1951532654
