20

C 0.0337809978 2.5131648218 0.6831137517
C 0.6989809506 1.8282408700 -0.5052441642
C 0.6989809506 0.3051379782 -0.4008311715
C -0.6989809506 -0.3051379782 -0.4008311715
C -0.6989809506 -1.8282408700 -0.5052441642
C -0.0337809978 -2.5131648218 0.6831137517
H 0.5003809646 2.1997518439 1.6177256852
H -1.0258319271 2.2715778388 0.7434617474
H 0.1210519916 3.5963377447 0.6136057562
H 1.7288868771 2.1791558451 -0.5903701583
H 0.1940769862 2.1234588493 -1.4281790987
H 1.2330579123 0.0144179988 0.5068207643
H 1.2616839107 -0.1131009918 -1.2401031122
H -1.2616839107 0.1131009918 -1.2401031122
H -1.2330579123 -0.0144179988 0.5068207643
H -0.1940769862 -2.1234588493 -1.4281790987
H -1.7288868771 -2.1791558451 -0.5903701583
H -0.1210519916 -3.5963377447 0.6136057562
H -0.5003809646 -2.1997518439 1.6177256852
H 1.0258319271 -2.2715778388 0.7434617474
