20

C 2.7117926578 -0.4347570190 0.1218167411
C 1.2126377638 -0.4057370212 -0.1482162395
C 0.6327288051 0.9925108797 0.0269097482
C -0.8459380898 1.1376708690 -0.3283672268
C -1.7908600231 0.2548879317 0.4976327145
C -2.1175929999 -1.0828359729 -0.1594692384
H 2.9273796424 -0.0978520428 1.1358426696
H 3.2414406200 0.2254119339 -0.5648442100
H 3.1229566285 -1.4365579479 0.0080057496
H 0.7114267996 -1.1010799716 0.5266377128
H 1.0126307781 -0.7566019965 -1.1635821674
H 1.2134827640 1.6883328303 -0.5847532087
H 0.7777957947 1.3046748575 1.0655446744
H -0.9881030801 0.9194918850 -1.3906981513
H -1.1200330707 2.1853657949 -0.1938222360
H -2.7267769563 0.7888768938 0.6671797028
H -1.3545440537 0.0887329435 1.4859496446
H -2.7817049528 -1.6790919310 0.4652467168
H -1.2224060630 -1.6698389315 -0.3518262251
H -2.6163129646 -0.9216039848 -1.1151871710
