20

C 0.6828599516 2.9336407916 -0.2998548786
C 0.6828599516 1.4134208996 -0.3976838717
C -0.0302939978 0.7623849458 0.7816900444
C 0.0302939978 -0.7623849458 0.7816900444
C -0.6828599516 -1.4134208996 -0.3976838717
C -0.6828599516 -2.9336407916 -0.2998548786
H 1.1847769160 3.2631587683 0.6097440567
H -0.3365919763 3.3183987645 -0.2721668807
H 1.1899609154 3.3922347591 -1.1473158187
H 1.7113258784 1.0456919256 -0.4386878691
H 0.2083119855 1.1111979211 -1.3321028053
H -1.0766269236 1.0821409232 0.7892240441
H 0.4124819707 1.1395279189 1.7071539788
H -0.4124819707 -1.1395279189 1.7071539788
H 1.0766269236 -1.0821409232 0.7892240441
H -0.2083119855 -1.1111979211 -1.3321028053
H -1.7113258784 -1.0456919256 -0.4386878691
H -1.1899609154 -3.3922347591 -1.1473158187
H -1.1847769160 -3.2631587683 0.6097440567
H 0.3365919763 -3.3183987645 -0.2721668807
