20

C 2.6938470586 -0.4555020678 -0.0190604484
C 1.3318991554 -0.0185060987 0.5049705141
C 0.4805272158 0.6280998555 -0.5806494089
C -0.8492356897 1.1842718157 -0.0751864445
C -1.7546106256 0.1540258892 0.5984265074
C -2.0973736010 -1.0250610271 -0.3040964285
H 3.2515460195 0.3970758720 -0.4062624210
H 2.5819000668 -1.1731090169 -0.8319583911
H 3.2945880164 -0.9235430344 0.7592364963
H 1.4609841465 0.6889738512 1.3280914557
H 0.8100551923 -0.8824010372 0.9202304848
H 0.3039122283 -0.0981930931 -1.3777253521
H 1.0512271754 1.4415047976 -1.0358603767
H -1.3893886514 1.6306567844 -0.9141113852
H -0.6467977041 1.9950317582 0.6291875051
H -2.6758665602 0.6506908540 0.9075524857
H -1.2850356589 -0.2094710853 1.5139074427
H -2.8134485503 -1.6919719798 0.1735575375
H -1.2134636638 -1.6125019857 -0.5487964112
H -2.5352655702 -0.6800710519 -1.2414533618
