20

C 1.4151798995 2.8692867964 0.0000000000
C 1.4151798995 1.3461679044 0.0000000000
C 0.0089309995 0.7612639458 0.0000000000
C -0.0089309995 -0.7612639458 0.0000000000
C -1.4151798995 -1.3461679044 0.0000000000
C -1.4151798995 -2.8692867964 0.0000000000
H 0.9009159358 3.2558657691 0.8796629376
H 0.9009159358 3.2558657691 -0.8796629376
H 2.4266238279 3.2724927679 0.0000000000
H 1.9559078614 0.9773159306 0.8744659380
H 1.9559078614 0.9773159306 -0.8744659380
H -0.5341969621 1.1292359201 -0.8752729380
H -0.5341969621 1.1292359201 0.8752729380
H 0.5341969621 -1.1292359201 0.8752729380
H 0.5341969621 -1.1292359201 -0.8752729380
H -1.9559078614 -0.9773159306 -0.8744659380
H -1.9559078614 -0.9773159306 0.8744659380
H -2.4266238279 -3.2724927679 0.0000000000
H -0.9009159358 -3.2558657691 0.8796629376
H -0.9009159358 -3.2558657691 -0.8796629376
