20

C 1.7398806267 1.1513212180 -0.0975560431
C 1.7069216290 -0.3705536736 -0.2058300355
C 0.5903477083 -1.0413656259 0.6043919073
C -0.7100291998 -1.2716576097 -0.1674080382
C -1.4148901496 -0.0191356986 -0.6830090014
C -1.8717341170 0.9157732351 0.4301419196
H 1.8632606176 1.4547711966 0.9423408829
H 0.8258186912 1.6095981857 -0.4676950167
H 2.5725495672 1.5663581886 -0.6644070027
H 2.6705945604 -0.7535196466 0.1332599404
H 1.6162946351 -0.6666726528 -1.2541729611
H 0.3972467217 -0.4577106673 1.5077818429
H 0.9387826833 -2.0167765566 0.9483388828
H -1.4057751499 -1.8199075706 0.4738279162
H -0.4903632151 -1.9276895631 -1.0136589781
H -2.2845000876 -0.3294296768 -1.2653939601
H -0.7641451956 0.5139932633 -1.3780319521
H -2.4207860783 1.7674101745 0.0308809477
H -1.0306911768 1.3042092076 1.0017278790
H -2.5287830707 0.3909842722 1.1244708702
