20

C -0.0682369949 1.7524128756 -1.0740073238
C 0.8235519416 1.3873439013 0.1091275924
C 0.0682369949 0.7620759460 1.2880785086
C -0.0682369949 -0.7620759460 1.2880785086
C -0.8235519416 -1.3873439013 0.1091275924
C 0.0682369949 -1.7524128756 -1.0740073238
H -0.8116939423 2.4889528233 -0.7689533456
H -0.6036059571 0.8910789368 -1.4664812958
H 0.5119209638 2.1842688448 -1.8888842660
H 1.3162559064 2.2987958369 0.4514675678
H 1.6237758848 0.7158549493 -0.2093723851
H -0.9292249338 1.2083429140 1.3433295048
H 0.5731879593 1.0388489260 2.2156954427
H -0.5731879593 -1.0388489260 2.2156954427
H 0.9292249338 -1.2083429140 1.3433295048
H -1.6237758848 -0.7158549493 -0.2093723851
H -1.3162559064 -2.2987958369 0.4514675678
H -0.5119209638 -2.1842688448 -1.8888842660
H 0.8116939423 -2.4889528233 -0.7689533456
H 0.6036059571 -0.8910789368 -1.4664812958
