17

C 0.0000000000 1.8337088697 -0.6500280715
C 0.8354309407 0.9771159307 0.2935448615
C 0.0000000000 0.0000000000 1.1188538027
C -0.8354309407 -0.9771159307 0.2935448615
C 0.0000000000 -1.8337088697 -0.6500280715
H 0.6138839565 2.5779858169 -1.1548100357
H -1.5885418871 -0.4309439693 -0.2767940982
H -1.3861239017 -1.6259728847 0.9765098130
H -0.7824099444 2.3610638325 -0.1031481101
H -0.4828029655 1.2307799129 -1.4177230169
H -0.6637019527 0.5711469593 1.7730217565
H 0.6637019527 -0.5711469593 1.7730217565
H 1.5885418871 0.4309439693 -0.2767940982
H 1.3861239017 1.6259728847 0.9765098130
H -0.6138839565 -2.5779858169 -1.1548100357
H 0.4828029655 -1.2307799129 -1.4177230169
H 0.7824099444 -2.3610638325 -0.1031481101
