17

C -1.8015617544 0.7014061269 0.1613532828
C -1.1453918010 -0.5349077858 -0.4461626742
C 0.0407571149 -1.0709937476 0.3666912680
C 1.4062720180 -0.5631247837 -0.0936066994
C 1.5739800059 0.9503831093 -0.0349337036
H -2.6297126958 1.0526441017 -0.4531416739
H 1.5772920059 -0.9036437592 -1.1176976265
H 2.1789439629 -1.0323917502 0.5183332574
H -1.0962258046 1.5216720685 0.2730832749
H -2.1964917267 0.4709621428 1.1508002125
H 0.0539011137 -2.1607796701 0.3127382720
H -0.1040368748 -0.8193057655 1.4212781931
H -1.9033597475 -1.3141667302 -0.5351116678
H -0.8141118246 -0.3187608010 -1.4651196019
H 2.5890789338 1.2394690884 -0.3035976842
H 0.8974200540 1.4542360733 -0.7231386546
H 1.3732470203 1.3273020822 0.9682322253
