17

C 2.4060822999 -0.1416254606 0.1081419333
C 0.9632214019 -0.3335164470 -0.3412320347
C 0.0367844679 0.7312754775 0.2338799246
C -1.4038144298 0.6360514842 -0.2611590405
C -2.1051443801 -0.6501184245 0.1605349297
H 3.0617112532 -0.9076644062 -0.3029200375
H -1.4132704291 0.7187184786 -1.3506309630
H -1.9668193897 1.4907894237 0.1175479328
H 2.4807242944 -0.1856094575 1.1946828565
H 2.7847812731 0.8296964707 -0.2096140437
H 0.4394284395 1.7156894076 -0.0179300577
H 0.0478894671 0.6640594824 1.3259798470
H 0.9085454060 -0.3011804491 -1.4323459571
H 0.6206994266 -1.3251433767 -0.0429020557
H -3.1501323057 -0.6477714246 -0.1455250483
H -1.6356084132 -1.5272073621 -0.2809380389
H -2.0750783820 -0.7664434163 1.2444298531
