17

C 0.0000000000 2.5329958203 0.3016589787
C 0.0000000000 1.2718279097 -0.5518819609
C 0.0000000000 0.0000000000 0.2852799799
C 0.0000000000 -1.2718279097 -0.5518819609
C 0.0000000000 -2.5329958203 0.3016589787
H 0.0000000000 3.4338707565 -0.3098899780
H 0.8744429378 -1.2692439099 -1.2065369143
H -0.8744429378 -1.2692439099 -1.2065369143
H 0.8796269377 2.5651408180 0.9443719329
H -0.8796269377 2.5651408180 0.9443719329
H -0.8751329378 0.0000000000 0.9418029331
H 0.8751329378 0.0000000000 0.9418029331
H -0.8744429378 1.2692439099 -1.2065369143
H 0.8744429378 1.2692439099 -1.2065369143
H 0.0000000000 -3.4338707565 -0.3098899780
H 0.8796269377 -2.5651408180 0.9443719329
H -0.8796269377 -2.5651408180 0.9443719329
