8
ferric PBC benchmark cell diamond_conv; lattice (Bohr rows) in diamond_conv.lattice
C       0.000000000000000      0.000000000000000      0.000000000000000
C       0.891750000000000      0.891750000000000      0.891750000000000
C       0.000000000000000      1.783500000000000      1.783500000000000
C       0.891750000000000      2.675250000000000      2.675250000000000
C       1.783500000000000      0.000000000000000      1.783500000000000
C       2.675250000000000      0.891750000000000      2.675250000000000
C       1.783500000000000      1.783500000000000      0.000000000000000
C       2.675250000000000      2.675250000000000      0.891750000000000
