12
dry ice, lattice x1.15, rigid CO2; lattice (Bohr rows) in dryice_x115.lattice
C       0.000000000000000      0.000000000000000      0.000000000000000
C       3.233800000000000      0.000000000000000      3.233800000000000
C       0.000000000000000      3.233800000000000      3.233800000000000
C       3.233800000000000      3.233800000000000      0.000000000000000
O       0.666444000000000      0.666444000000000      0.666444000000000
O       2.567356000000000     -0.666444000000000      3.900244000000000
O      -0.666444000000000      3.900244000000000      2.567356000000000
O       3.900244000000000      2.567356000000000     -0.666444000000000
O      -0.666444000000000     -0.666444000000000     -0.666444000000000
O       3.900244000000000      0.666444000000000      2.567356000000000
O       0.666444000000000      2.567356000000000      3.900244000000000
O       2.567356000000000      3.900244000000000      0.666444000000000
