12
ferric PBC benchmark cell dryice; lattice (Bohr rows) in dryice.lattice
C       0.000000000000000      0.000000000000000      0.000000000000000
C       2.812000000000000      0.000000000000000      2.812000000000000
C       0.000000000000000      2.812000000000000      2.812000000000000
C       2.812000000000000      2.812000000000000      0.000000000000000
O       0.666444000000000      0.666444000000000      0.666444000000000
O       2.145556000000000      4.957555999999999      3.478444000000000
O       4.957555999999999      3.478444000000000      2.145556000000000
O       3.478444000000000      2.145556000000000      4.957555999999999
O       4.957555999999999      4.957555999999999      4.957555999999999
O       3.478444000000000      0.666444000000000      2.145556000000000
O       0.666444000000000      2.145556000000000      3.478444000000000
O       2.145556000000000      3.478444000000000      0.666444000000000
